letting SIZE be 4
letting values be
[
 [ 3, 0, 1, 2 ],
 [ 0, 0, 2, 0 ],
 [ 0, 0, 0, 3 ],
 [ 1, 0, 0, 0 ]
]
$ specify last index in array lt; lt[0] is first entry
letting lastdx be 0
$ [i1,j1,i2,j2] requires that values[i1,j1]<values[i2,j2]
letting lt be
[[1,3,1,4]]

